c File: data_files/evolved_graphs/g0250.col
c
c Auto generated graph
c
p edge 100 1789
e 1 4
e 1 5
e 1 25
e 1 27
e 1 28
e 1 30
e 1 31
e 1 32
e 1 33
e 1 34
e 1 35
e 1 36
e 1 37
e 1 38
e 1 39
e 1 40
e 1 41
e 1 44
e 1 45
e 1 46
e 1 48
e 1 51
e 1 52
e 1 53
e 1 55
e 1 59
e 1 61
e 1 65
e 1 66
e 1 67
e 1 69
e 1 70
e 1 73
e 1 75
e 1 76
e 1 78
e 1 79
e 1 80
e 1 81
e 1 82
e 1 83
e 1 84
e 1 85
e 1 86
e 1 87
e 1 88
e 1 89
e 1 90
e 1 92
e 1 93
e 1 94
e 1 95
e 1 96
e 1 97
e 1 98
e 1 99
e 1 100
e 2 4
e 2 25
e 2 26
e 2 27
e 2 28
e 2 29
e 2 30
e 2 31
e 2 32
e 2 33
e 2 34
e 2 35
e 2 36
e 2 38
e 2 39
e 2 40
e 2 41
e 2 43
e 2 44
e 2 45
e 2 46
e 2 47
e 2 49
e 2 51
e 2 52
e 2 54
e 2 60
e 2 61
e 2 64
e 2 66
e 2 68
e 2 69
e 2 70
e 2 71
e 2 72
e 2 75
e 2 76
e 2 78
e 2 79
e 2 80
e 2 81
e 2 82
e 2 83
e 2 84
e 2 85
e 2 86
e 2 87
e 2 88
e 2 89
e 2 90
e 2 91
e 2 92
e 2 93
e 2 94
e 2 95
e 2 96
e 2 97
e 2 98
e 2 99
e 2 100
e 3 4
e 3 25
e 3 26
e 3 27
e 3 28
e 3 29
e 3 30
e 3 31
e 3 32
e 3 33
e 3 34
e 3 36
e 3 37
e 3 38
e 3 39
e 3 40
e 3 41
e 3 42
e 3 43
e 3 44
e 3 47
e 3 49
e 3 50
e 3 51
e 3 53
e 3 54
e 3 55
e 3 56
e 3 57
e 3 58
e 3 60
e 3 61
e 3 62
e 3 63
e 3 65
e 3 67
e 3 69
e 3 71
e 3 74
e 3 75
e 3 76
e 3 77
e 3 80
e 3 81
e 3 82
e 3 83
e 3 84
e 3 85
e 3 86
e 3 87
e 3 88
e 3 89
e 3 90
e 3 91
e 3 92
e 3 93
e 3 94
e 3 95
e 3 96
e 3 97
e 3 98
e 3 99
e 3 100
e 4 7
e 4 10
e 4 25
e 4 26
e 4 27
e 4 28
e 4 29
e 4 30
e 4 31
e 4 32
e 4 33
e 4 34
e 4 36
e 4 37
e 4 38
e 4 39
e 4 40
e 4 41
e 4 43
e 4 44
e 4 47
e 4 48
e 4 50
e 4 53
e 4 54
e 4 55
e 4 58
e 4 62
e 4 63
e 4 64
e 4 66
e 4 67
e 4 68
e 4 70
e 4 71
e 4 72
e 4 73
e 4 75
e 4 78
e 4 79
e 4 81
e 4 82
e 4 83
e 4 84
e 4 85
e 4 86
e 4 87
e 4 88
e 4 89
e 4 90
e 4 91
e 4 92
e 4 93
e 4 94
e 4 95
e 4 96
e 4 97
e 4 99
e 4 100
e 5 25
e 5 26
e 5 27
e 5 28
e 5 29
e 5 30
e 5 31
e 5 32
e 5 33
e 5 34
e 5 35
e 5 36
e 5 37
e 5 38
e 5 39
e 5 40
e 5 41
e 5 42
e 5 44
e 5 46
e 5 48
e 5 49
e 5 50
e 5 52
e 5 58
e 5 64
e 5 66
e 5 69
e 5 71
e 5 74
e 5 75
e 5 77
e 5 79
e 5 81
e 5 82
e 5 83
e 5 84
e 5 85
e 5 86
e 5 87
e 5 88
e 5 89
e 5 90
e 5 91
e 5 92
e 5 93
e 5 94
e 5 95
e 5 96
e 5 97
e 5 98
e 5 99
e 5 100
e 6 24
e 6 25
e 6 26
e 6 27
e 6 28
e 6 29
e 6 30
e 6 31
e 6 32
e 6 33
e 6 34
e 6 35
e 6 36
e 6 37
e 6 38
e 6 39
e 6 40
e 6 41
e 6 42
e 6 43
e 6 44
e 6 46
e 6 48
e 6 51
e 6 52
e 6 53
e 6 54
e 6 55
e 6 56
e 6 57
e 6 59
e 6 60
e 6 61
e 6 65
e 6 66
e 6 68
e 6 70
e 6 71
e 6 72
e 6 74
e 6 75
e 6 77
e 6 78
e 6 81
e 6 82
e 6 83
e 6 84
e 6 85
e 6 86
e 6 87
e 6 88
e 6 89
e 6 90
e 6 91
e 6 92
e 6 93
e 6 94
e 6 95
e 6 96
e 6 97
e 6 98
e 6 99
e 6 100
e 7 25
e 7 26
e 7 27
e 7 28
e 7 29
e 7 30
e 7 31
e 7 32
e 7 33
e 7 34
e 7 35
e 7 36
e 7 37
e 7 38
e 7 39
e 7 40
e 7 41
e 7 43
e 7 44
e 7 45
e 7 48
e 7 49
e 7 51
e 7 52
e 7 53
e 7 55
e 7 60
e 7 62
e 7 68
e 7 69
e 7 70
e 7 73
e 7 76
e 7 77
e 7 78
e 7 79
e 7 81
e 7 82
e 7 83
e 7 84
e 7 85
e 7 86
e 7 87
e 7 88
e 7 89
e 7 90
e 7 91
e 7 92
e 7 93
e 7 94
e 7 95
e 7 96
e 7 97
e 7 98
e 7 99
e 7 100
e 8 24
e 8 25
e 8 26
e 8 27
e 8 28
e 8 29
e 8 30
e 8 31
e 8 32
e 8 33
e 8 34
e 8 35
e 8 36
e 8 37
e 8 38
e 8 39
e 8 40
e 8 41
e 8 42
e 8 43
e 8 45
e 8 46
e 8 47
e 8 49
e 8 52
e 8 53
e 8 54
e 8 55
e 8 57
e 8 58
e 8 59
e 8 60
e 8 61
e 8 64
e 8 65
e 8 67
e 8 69
e 8 70
e 8 71
e 8 74
e 8 78
e 8 80
e 8 81
e 8 85
e 8 86
e 8 87
e 8 88
e 8 89
e 8 90
e 8 91
e 8 92
e 8 93
e 8 94
e 8 95
e 8 96
e 8 97
e 8 98
e 8 99
e 8 100
e 9 17
e 9 24
e 9 26
e 9 27
e 9 28
e 9 29
e 9 30
e 9 31
e 9 32
e 9 33
e 9 34
e 9 35
e 9 36
e 9 37
e 9 38
e 9 39
e 9 40
e 9 41
e 9 43
e 9 45
e 9 46
e 9 48
e 9 51
e 9 52
e 9 54
e 9 55
e 9 56
e 9 57
e 9 59
e 9 62
e 9 65
e 9 67
e 9 70
e 9 71
e 9 73
e 9 77
e 9 78
e 9 79
e 9 81
e 9 82
e 9 83
e 9 84
e 9 85
e 9 86
e 9 87
e 9 88
e 9 89
e 9 90
e 9 91
e 9 92
e 9 93
e 9 94
e 9 95
e 9 96
e 9 97
e 9 98
e 9 99
e 9 100
e 10 25
e 10 26
e 10 27
e 10 28
e 10 29
e 10 30
e 10 31
e 10 32
e 10 33
e 10 34
e 10 35
e 10 36
e 10 37
e 10 38
e 10 39
e 10 40
e 10 41
e 10 43
e 10 44
e 10 47
e 10 48
e 10 50
e 10 52
e 10 53
e 10 54
e 10 55
e 10 56
e 10 58
e 10 59
e 10 65
e 10 66
e 10 67
e 10 68
e 10 73
e 10 75
e 10 76
e 10 77
e 10 79
e 10 81
e 10 82
e 10 83
e 10 84
e 10 85
e 10 86
e 10 87
e 10 88
e 10 89
e 10 90
e 10 91
e 10 92
e 10 93
e 10 94
e 10 95
e 10 96
e 10 97
e 10 98
e 10 99
e 10 100
e 11 18
e 11 25
e 11 26
e 11 27
e 11 28
e 11 29
e 11 30
e 11 31
e 11 32
e 11 33
e 11 34
e 11 35
e 11 36
e 11 37
e 11 38
e 11 39
e 11 40
e 11 41
e 11 42
e 11 43
e 11 46
e 11 48
e 11 49
e 11 50
e 11 53
e 11 54
e 11 55
e 11 56
e 11 59
e 11 61
e 11 63
e 11 69
e 11 74
e 11 76
e 11 77
e 11 79
e 11 80
e 11 81
e 11 82
e 11 83
e 11 84
e 11 85
e 11 86
e 11 87
e 11 88
e 11 89
e 11 90
e 11 92
e 11 93
e 11 94
e 11 95
e 11 96
e 11 97
e 11 98
e 11 99
e 11 100
e 12 25
e 12 26
e 12 27
e 12 28
e 12 29
e 12 30
e 12 31
e 12 32
e 12 33
e 12 34
e 12 35
e 12 36
e 12 38
e 12 39
e 12 40
e 12 41
e 12 42
e 12 44
e 12 45
e 12 46
e 12 48
e 12 50
e 12 52
e 12 54
e 12 55
e 12 57
e 12 58
e 12 59
e 12 60
e 12 61
e 12 62
e 12 65
e 12 68
e 12 69
e 12 70
e 12 72
e 12 73
e 12 74
e 12 75
e 12 76
e 12 79
e 12 82
e 12 83
e 12 84
e 12 85
e 12 86
e 12 87
e 12 88
e 12 89
e 12 90
e 12 91
e 12 92
e 12 93
e 12 94
e 12 95
e 12 96
e 12 97
e 12 98
e 12 99
e 12 100
e 13 25
e 13 27
e 13 28
e 13 29
e 13 30
e 13 31
e 13 32
e 13 33
e 13 34
e 13 35
e 13 36
e 13 37
e 13 38
e 13 39
e 13 40
e 13 41
e 13 42
e 13 44
e 13 45
e 13 46
e 13 47
e 13 49
e 13 51
e 13 52
e 13 54
e 13 59
e 13 60
e 13 62
e 13 63
e 13 66
e 13 67
e 13 69
e 13 70
e 13 71
e 13 73
e 13 74
e 13 77
e 13 78
e 13 79
e 13 89
e 13 90
e 13 91
e 13 92
e 13 93
e 13 94
e 13 95
e 13 96
e 13 97
e 13 98
e 13 99
e 13 100
e 14 25
e 14 27
e 14 28
e 14 29
e 14 30
e 14 31
e 14 32
e 14 33
e 14 34
e 14 35
e 14 36
e 14 37
e 14 38
e 14 39
e 14 40
e 14 41
e 14 43
e 14 44
e 14 45
e 14 50
e 14 51
e 14 52
e 14 57
e 14 58
e 14 59
e 14 65
e 14 68
e 14 71
e 14 72
e 14 73
e 14 74
e 14 75
e 14 77
e 14 80
e 14 93
e 14 94
e 14 95
e 14 96
e 14 97
e 14 98
e 14 99
e 15 25
e 15 27
e 15 28
e 15 29
e 15 30
e 15 31
e 15 32
e 15 33
e 15 34
e 15 35
e 15 36
e 15 37
e 15 38
e 15 39
e 15 40
e 15 41
e 15 42
e 15 43
e 15 45
e 15 49
e 15 51
e 15 53
e 15 54
e 15 55
e 15 62
e 15 69
e 15 71
e 15 73
e 15 74
e 15 75
e 15 78
e 15 79
e 15 93
e 15 94
e 15 95
e 15 96
e 15 97
e 15 98
e 15 99
e 16 25
e 16 27
e 16 28
e 16 29
e 16 30
e 16 31
e 16 32
e 16 33
e 16 34
e 16 35
e 16 36
e 16 37
e 16 38
e 16 39
e 16 40
e 16 41
e 16 42
e 16 45
e 16 46
e 16 47
e 16 48
e 16 53
e 16 54
e 16 55
e 16 57
e 16 58
e 16 60
e 16 62
e 16 63
e 16 64
e 16 66
e 16 67
e 16 68
e 16 70
e 16 71
e 16 72
e 16 73
e 16 75
e 16 77
e 16 79
e 16 80
e 17 25
e 17 27
e 17 28
e 17 29
e 17 30
e 17 31
e 17 32
e 17 33
e 17 34
e 17 36
e 17 37
e 17 38
e 17 39
e 17 40
e 17 41
e 17 44
e 17 45
e 17 46
e 17 49
e 17 50
e 17 53
e 17 58
e 17 62
e 17 65
e 17 67
e 17 70
e 17 72
e 17 73
e 17 75
e 17 78
e 17 80
e 18 25
e 18 26
e 18 27
e 18 28
e 18 29
e 18 30
e 18 31
e 18 32
e 18 33
e 18 34
e 18 35
e 18 36
e 18 37
e 18 38
e 18 39
e 18 40
e 18 41
e 18 44
e 18 46
e 18 47
e 18 48
e 18 49
e 18 50
e 18 52
e 18 53
e 18 54
e 18 57
e 18 58
e 18 61
e 18 62
e 18 63
e 18 65
e 18 70
e 18 73
e 18 74
e 18 75
e 18 77
e 18 78
e 18 80
e 18 86
e 19 25
e 19 26
e 19 27
e 19 28
e 19 29
e 19 30
e 19 31
e 19 32
e 19 33
e 19 34
e 19 35
e 19 36
e 19 37
e 19 38
e 19 39
e 19 40
e 19 41
e 19 42
e 19 43
e 19 45
e 19 48
e 19 51
e 19 52
e 19 53
e 19 55
e 19 56
e 19 57
e 19 58
e 19 62
e 19 63
e 19 65
e 19 66
e 19 67
e 19 69
e 19 70
e 19 73
e 19 74
e 19 75
e 19 77
e 19 79
e 19 82
e 19 83
e 19 84
e 20 25
e 20 26
e 20 27
e 20 28
e 20 29
e 20 30
e 20 31
e 20 32
e 20 33
e 20 34
e 20 35
e 20 36
e 20 37
e 20 38
e 20 39
e 20 40
e 20 41
e 20 42
e 20 43
e 20 45
e 20 47
e 20 48
e 20 50
e 20 51
e 20 53
e 20 54
e 20 56
e 20 57
e 20 58
e 20 59
e 20 60
e 20 61
e 20 62
e 20 67
e 20 69
e 20 70
e 20 71
e 20 72
e 20 74
e 20 77
e 20 78
e 20 100
e 21 25
e 21 26
e 21 27
e 21 28
e 21 29
e 21 30
e 21 31
e 21 32
e 21 33
e 21 34
e 21 35
e 21 36
e 21 37
e 21 38
e 21 39
e 21 40
e 21 41
e 21 42
e 21 43
e 21 46
e 21 47
e 21 48
e 21 53
e 21 55
e 21 56
e 21 57
e 21 61
e 21 62
e 21 63
e 21 64
e 21 65
e 21 66
e 21 67
e 21 69
e 21 72
e 21 74
e 21 75
e 21 77
e 21 79
e 21 80
e 22 25
e 22 26
e 22 27
e 22 28
e 22 29
e 22 30
e 22 31
e 22 32
e 22 33
e 22 34
e 22 35
e 22 36
e 22 37
e 22 38
e 22 39
e 22 40
e 22 41
e 22 44
e 22 46
e 22 47
e 22 49
e 22 51
e 22 54
e 22 57
e 22 58
e 22 60
e 22 63
e 22 66
e 22 68
e 22 71
e 22 73
e 22 74
e 22 76
e 22 77
e 22 78
e 22 80
e 23 25
e 23 26
e 23 27
e 23 28
e 23 29
e 23 30
e 23 31
e 23 32
e 23 33
e 23 34
e 23 35
e 23 36
e 23 37
e 23 38
e 23 39
e 23 40
e 23 41
e 23 43
e 23 47
e 23 48
e 23 51
e 23 52
e 23 53
e 23 54
e 23 57
e 23 58
e 23 60
e 23 61
e 23 62
e 23 63
e 23 65
e 23 67
e 23 69
e 23 70
e 23 71
e 23 74
e 23 75
e 23 78
e 23 80
e 23 86
e 24 25
e 24 26
e 24 27
e 24 28
e 24 29
e 24 30
e 24 31
e 24 32
e 24 33
e 24 34
e 24 35
e 24 36
e 24 37
e 24 38
e 24 39
e 24 40
e 24 41
e 24 42
e 24 45
e 24 49
e 24 51
e 24 54
e 24 56
e 24 57
e 24 58
e 24 59
e 24 62
e 24 63
e 24 64
e 24 65
e 24 67
e 24 68
e 24 69
e 24 72
e 24 74
e 24 76
e 25 46
e 25 48
e 25 49
e 25 51
e 25 55
e 25 60
e 25 61
e 25 63
e 25 66
e 25 67
e 25 70
e 25 71
e 25 72
e 25 75
e 25 76
e 25 77
e 25 79
e 25 80
e 26 42
e 26 43
e 26 45
e 26 47
e 26 48
e 26 49
e 26 50
e 26 51
e 26 53
e 26 54
e 26 55
e 26 56
e 26 57
e 26 60
e 26 63
e 26 66
e 26 70
e 26 71
e 26 72
e 26 75
e 26 78
e 26 80
e 27 45
e 27 47
e 27 48
e 27 49
e 27 51
e 27 52
e 27 58
e 27 59
e 27 60
e 27 61
e 27 62
e 27 63
e 27 65
e 27 66
e 27 67
e 27 69
e 27 71
e 27 72
e 27 73
e 27 75
e 27 76
e 28 42
e 28 47
e 28 48
e 28 53
e 28 56
e 28 59
e 28 61
e 28 62
e 28 63
e 28 64
e 28 69
e 28 74
e 28 79
e 28 80
e 29 42
e 29 43
e 29 46
e 29 48
e 29 49
e 29 50
e 29 53
e 29 54
e 29 55
e 29 59
e 29 64
e 29 65
e 29 66
e 29 68
e 29 70
e 29 74
e 29 79
e 30 47
e 30 48
e 30 49
e 30 50
e 30 54
e 30 55
e 30 57
e 30 62
e 30 63
e 30 64
e 30 65
e 30 67
e 30 68
e 30 69
e 30 70
e 30 71
e 30 72
e 30 73
e 30 74
e 30 78
e 31 42
e 31 43
e 31 45
e 31 50
e 31 51
e 31 52
e 31 54
e 31 55
e 31 58
e 31 60
e 31 62
e 31 65
e 31 66
e 31 67
e 31 68
e 31 70
e 31 71
e 31 72
e 31 73
e 31 74
e 31 76
e 31 78
e 31 79
e 32 42
e 32 43
e 32 44
e 32 47
e 32 48
e 32 49
e 32 50
e 32 51
e 32 53
e 32 54
e 32 55
e 32 56
e 32 57
e 32 59
e 32 63
e 32 64
e 32 66
e 32 67
e 32 70
e 32 72
e 32 74
e 32 75
e 32 76
e 32 77
e 32 78
e 33 43
e 33 47
e 33 48
e 33 51
e 33 52
e 33 58
e 33 59
e 33 60
e 33 61
e 33 62
e 33 63
e 33 64
e 33 66
e 33 67
e 33 69
e 33 74
e 33 75
e 33 76
e 33 77
e 33 80
e 34 44
e 34 46
e 34 47
e 34 50
e 34 51
e 34 53
e 34 54
e 34 55
e 34 56
e 34 57
e 34 60
e 34 61
e 34 62
e 34 64
e 34 65
e 34 66
e 34 67
e 34 69
e 34 70
e 34 73
e 34 77
e 35 43
e 35 44
e 35 45
e 35 46
e 35 47
e 35 48
e 35 51
e 35 54
e 35 56
e 35 59
e 35 60
e 35 62
e 35 68
e 35 69
e 35 71
e 35 72
e 35 74
e 35 75
e 35 76
e 35 80
e 36 42
e 36 46
e 36 48
e 36 50
e 36 52
e 36 56
e 36 57
e 36 58
e 36 59
e 36 61
e 36 62
e 36 63
e 36 64
e 36 65
e 36 66
e 36 67
e 36 68
e 36 69
e 36 70
e 36 71
e 36 72
e 36 80
e 37 46
e 37 47
e 37 51
e 37 54
e 37 55
e 37 59
e 37 60
e 37 68
e 37 69
e 37 70
e 37 71
e 37 74
e 37 76
e 37 77
e 37 78
e 37 80
e 38 42
e 38 43
e 38 44
e 38 45
e 38 47
e 38 50
e 38 51
e 38 53
e 38 54
e 38 55
e 38 56
e 38 57
e 38 58
e 38 59
e 38 60
e 38 61
e 38 62
e 38 64
e 38 65
e 38 66
e 38 68
e 38 69
e 38 70
e 38 71
e 38 72
e 38 73
e 38 76
e 38 78
e 39 43
e 39 44
e 39 45
e 39 46
e 39 49
e 39 50
e 39 51
e 39 52
e 39 54
e 39 57
e 39 59
e 39 60
e 39 64
e 39 65
e 39 66
e 39 67
e 39 68
e 39 69
e 39 70
e 39 74
e 39 75
e 39 78
e 39 79
e 40 42
e 40 44
e 40 46
e 40 47
e 40 48
e 40 53
e 40 54
e 40 56
e 40 58
e 40 59
e 40 60
e 40 62
e 40 64
e 40 65
e 40 66
e 40 67
e 40 68
e 40 72
e 40 73
e 40 75
e 40 76
e 40 77
e 40 78
e 40 80
e 41 42
e 41 43
e 41 44
e 41 45
e 41 46
e 41 50
e 41 51
e 41 52
e 41 53
e 41 56
e 41 57
e 41 59
e 41 60
e 41 61
e 41 62
e 41 63
e 41 64
e 41 65
e 41 67
e 41 69
e 41 70
e 41 74
e 41 78
e 41 80
e 47 76
e 51 74
e 52 74
e 53 74
e 54 100
e 55 100
e 56 88
e 56 100
e 57 87
e 57 100
e 58 100
e 59 100
e 60 100
e 61 100
e 62 81
e 62 100
e 63 100
e 64 100
e 66 100
e 67 89
e 67 90
e 67 91
e 67 92
e 67 93
e 67 94
e 67 95
e 67 96
e 67 97
e 67 98
e 67 99
e 67 100
e 68 89
e 68 90
e 68 91
e 68 92
e 68 93
e 68 94
e 68 95
e 68 96
e 68 98
e 68 99
e 68 100
e 69 89
e 69 90
e 69 91
e 69 92
e 69 93
e 69 94
e 69 95
e 69 96
e 69 97
e 69 98
e 69 99
e 69 100
e 70 90
e 70 91
e 70 92
e 70 93
e 70 94
e 70 95
e 70 96
e 70 97
e 70 98
e 70 99
e 70 100
e 71 89
e 71 90
e 71 91
e 71 92
e 71 93
e 71 94
e 71 95
e 71 96
e 71 97
e 71 98
e 71 99
e 71 100
e 72 89
e 72 90
e 72 91
e 72 92
e 72 93
e 72 94
e 72 95
e 72 96
e 72 97
e 72 98
e 72 99
e 72 100
e 73 76
e 73 89
e 73 90
e 73 91
e 73 92
e 73 93
e 73 94
e 73 95
e 73 96
e 73 97
e 73 98
e 73 99
e 73 100
e 74 89
e 74 90
e 74 91
e 74 92
e 74 93
e 74 94
e 74 95
e 74 96
e 74 97
e 74 98
e 74 99
e 74 100
e 75 89
e 75 90
e 75 91
e 75 92
e 75 93
e 75 94
e 75 95
e 75 96
e 75 97
e 75 98
e 75 99
e 75 100
e 76 89
e 76 90
e 76 91
e 76 92
e 76 93
e 76 94
e 76 95
e 76 96
e 76 97
e 76 98
e 76 99
e 76 100
e 77 78
e 77 89
e 77 90
e 77 91
e 77 92
e 77 93
e 77 94
e 77 95
e 77 96
e 77 97
e 77 98
e 77 99
e 77 100
e 78 89
e 78 90
e 78 91
e 78 92
e 78 93
e 78 94
e 78 95
e 78 96
e 78 97
e 78 98
e 78 99
e 78 100
e 79 89
e 79 90
e 79 91
e 79 92
e 79 93
e 79 94
e 79 95
e 79 96
e 79 97
e 79 98
e 79 99
e 79 100
e 80 89
e 80 90
e 80 91
e 80 92
e 80 93
e 80 94
e 80 95
e 80 96
e 80 97
e 80 98
e 80 99
e 80 100
e 81 89
e 81 93
e 81 94
e 81 95
e 81 96
e 81 97
e 81 98
e 81 99
e 81 100
e 82 93
e 82 94
e 82 95
e 82 96
e 82 97
e 82 98
e 82 99
e 82 100
e 83 93
e 83 94
e 83 95
e 83 96
e 83 97
e 83 98
e 83 99
e 83 100
e 84 93
e 84 94
e 84 95
e 84 96
e 84 97
e 84 98
e 84 99
e 84 100
e 85 93
e 85 95
e 85 96
e 85 97
e 85 98
e 85 99
e 85 100
e 86 94
e 86 97
e 86 98
e 86 99
e 86 100
e 87 93
e 87 94
e 87 95
e 87 96
e 87 97
e 87 98
e 87 99
e 87 100
e 88 93
e 88 94
e 88 96
e 88 97
e 88 98
e 88 99
e 88 100
e 90 96
e 91 96
